NAME          ClpDefau
ROWS
 N  OBJROW
 L  R_108_0
 L  R_108_1
 L  R_108_2
 L  R_108_3
 L  R_108_4
 L  R_108_5
 L  R_108_6
 L  R_108_7
COLUMNS
    x_0       OBJROW     -8.           R_108_0   4.          
    x_0       R_108_1   10.            R_108_2   7.          
    x_0       R_108_3   9.             R_108_5   8.          
    x_0       R_108_6   1.          
    x_1       OBJROW     -12.          R_108_0   6.          
    x_1       R_108_2   9.             R_108_3   3.          
    x_1       R_108_4   1.             R_108_5   3.          
    x_1       R_108_6   9.             R_108_7   9.          
    x_2       OBJROW     -11.          R_108_0   3.          
    x_2       R_108_2   7.             R_108_3   6.          
    x_2       R_108_4   6.             R_108_5   8.          
    x_2       R_108_6   7.             R_108_7   8.          
    x_3       OBJROW     -47.          R_108_0   4.          
    x_3       R_108_1   8.             R_108_2   6.          
    x_3       R_108_3   8.             R_108_5   10.         
    x_3       R_108_6   9.             R_108_7   8.          
    x_4       OBJROW     -22.          R_108_0   6.          
    x_4       R_108_4   8.             R_108_5   9.          
    x_4       R_108_6   9.             R_108_7   10.         
    x_5       OBJROW     -95.          R_108_0   4.          
    x_5       R_108_1   6.             R_108_3   2.          
    x_5       R_108_4   6.             R_108_5   4.          
    x_5       R_108_7   10.         
    x_6       OBJROW     -86.          R_108_0   5.          
    x_6       R_108_1   2.             R_108_2   3.          
    x_6       R_108_4   4.             R_108_6   1.          
    x_6       R_108_7   6.          
    x_7       OBJROW     -40.          R_108_0   1.          
    x_7       R_108_1   2.             R_108_2   1.          
    x_7       R_108_3   3.             R_108_5   3.          
    x_7       R_108_6   1.             R_108_7   1.          
RHS
    RHS       R_108_0   35.            R_108_1   34.         
    RHS       R_108_2   32.            R_108_3   32.         
    RHS       R_108_4   37.            R_108_5   41.         
    RHS       R_108_6   42.            R_108_7   33.         
BOUNDS
 UI BOUND     x_0       100.        
 UI BOUND     x_1       100.        
 UI BOUND     x_2       100.        
 UI BOUND     x_3       100.        
 UI BOUND     x_4       100.        
 UI BOUND     x_5       100.        
 UI BOUND     x_6       100.        
 UI BOUND     x_7       100.        
ENDATA
